certificates/rado_a15_c220_N48.drat
15 -45 -47 0
-45 -47 -48 0
20 45 -48 0
45 -48 0
d 20 45 -48 0
-20 -48 0
-48 0
20 -45 0
-45 0
-20 0
15 0
13 0
-10 0
-8 0
-38 0
-18 0
-40 0
17 0
14 0
12 0
16 0
-27 0
-7 0
0
